p cnf 10 50
7 1 5 0
10 1 5 0
3 5 1 0
-8 7 -4 0
-6 -3 -9 0
2 3 7 0
-5 7 9 0
-7 1 4 0
3 -1 -6 0
10 5 -2 0
10 -9 7 0
-10 -1 -2 0
2 -7 10 0
-2 9 -4 0
-10 -3 -4 0
1 2 -6 0
1 -4 -9 0
-8 7 4 0
-3 -5 7 0
9 6 -2 0
7 1 -4 0
-2 3 9 0
6 10 3 0
5 -4 1 0
-3 -9 -6 0
1 -8 -7 0
-10 -7 1 0
2 9 -5 0
10 4 7 0
-10 7 5 0
-3 4 9 0
2 -3 -6 0
8 4 -5 0
1 -9 6 0
1 5 -6 0
-3 -6 5 0
6 -7 5 0
5 -6 -1 0
-4 -7 1 0
-9 -7 -4 0
-6 -1 -8 0
2 5 10 0
-2 6 -9 0
-7 -9 -3 0
2 4 -3 0
4 1 -7 0
-9 -6 3 0
7 -8 3 0
-6 8 4 0
3 -6 4 0